\ Model Examen1Punto2Dual
\ LP format - for model browsing. Use MPS format to capture full model detail.
Minimize
  18789 y[0] + 18123 y[1] + 9789 y[2] - 923 y[3] - 223 y[4]
Subject To
 c[0]: 15 y[0] + 15 y[1] + 3 y[2] - y[3] >= 180000
 c[1]: 10 y[0] + 15 y[1] + 4 y[2] - y[4] >= 220000
 c[2]: 8 y[0] + 4 y[1] + 2 y[2] >= 20000
Bounds
End
